170 127 172 161 82 96 28 102 149 179 3 44 43 64 90 150 12 24 14 93 154 117 7 108 19 169 77 178 20 124 118 187 95 63 122 109 78 11 81 29 160 199 159 61 89 186 110 191 146 166 27 6 145 55 74 47 79 106 98 121 103 72 162 132 68 198 32 125 46 62 173 8 101 18 133 195 84 168 192 60 85 25 2 30 56 26 99 92 42 174 140 75 22 130 97 120 10 31 158 111 4 37 100 54 69 38 143 23 36 139 94 155 67 184 157 136 177 39 194 104 175 167 52 171 66 86 113 153 164 0 138 71 73 123 1 5 76 185 13 17 107 88 131 115 148 197 147 196 114 181 137 51 119 190 134 45 176 189 182 188 9 142 129 58 165 35 105 141 48 41 57 16 83 87 152 144 135 193 163 151 156 40 33 70 50 116 59 65 183 34 128 15 126 112 53 21 91 49 180 80 

